peakDumbCharging = 29600; 
Machine = anon_enum(16); 
machineSpeed = [3700,3700,3700,3700,3700,3700,3700,3700,3700,3700,3700,3700,3700,3700,3700,3700]; 
machineLoad = [3700,3700,3700,3700,3700,3700,3700,3700,3700,3700,3700,3700,3700,3700,3700,3700]; 
Car = anon_enum(30); 
demandCar = [7200,7320,1440,1960,35840,14400,7200,2520,19160,4680,2760,10520,6680,25320,12360,2760,10880,11320,8120,6440,20840,1000,32720,66160,12960,6520,5560,7680,12560,5960]; 
arrivalCar = [78,76,75,71,71,65,65,65,63,59,58,58,58,57,56,55,54,54,53,53,52,51,48,45,44,43,43,41,40,38]; 
departureCar = [81,80,77,73,83,71,68,66,69,62,61,63,63,66,63,58,59,61,57,58,63,52,66,66,51,46,46,44,45,41]; 
